p cnf 280 1816
1 2 3 4 5 6 7 0
8 9 10 11 12 13 14 0
15 16 17 18 19 20 21 0
22 23 24 25 26 27 28 0
29 30 31 32 33 34 35 0
36 37 38 39 40 41 42 0
43 44 45 46 47 48 49 0
50 51 52 53 54 55 56 0
57 58 59 60 61 62 63 0
64 65 66 67 68 69 70 0
71 72 73 74 75 76 77 0
78 79 80 81 82 83 84 0
85 86 87 88 89 90 91 0
92 93 94 95 96 97 98 0
99 100 101 102 103 104 105 0
106 107 108 109 110 111 112 0
113 114 115 116 117 118 119 0
120 121 122 123 124 125 126 0
127 128 129 130 131 132 133 0
134 135 136 137 138 139 140 0
141 142 143 144 145 146 147 0
148 149 150 151 152 153 154 0
155 156 157 158 159 160 161 0
162 163 164 165 166 167 168 0
169 170 171 172 173 174 175 0
176 177 178 179 180 181 182 0
183 184 185 186 187 188 189 0
190 191 192 193 194 195 196 0
197 198 199 200 201 202 203 0
204 205 206 207 208 209 210 0
211 212 213 214 215 216 217 0
218 219 220 221 222 223 224 0
225 226 227 228 229 230 231 0
232 233 234 235 236 237 238 0
239 240 241 242 243 244 245 0
246 247 248 249 250 251 252 0
253 254 255 256 257 258 259 0
260 261 262 263 264 265 266 0
267 268 269 270 271 272 273 0
274 275 276 277 278 279 280 0
-1 -2 0
-1 -3 0
-1 -4 0
-1 -5 0
-1 -6 0
-1 -7 0
-2 -3 0
-2 -4 0
-2 -5 0
-2 -6 0
-2 -7 0
-3 -4 0
-3 -5 0
-3 -6 0
-3 -7 0
-4 -5 0
-4 -6 0
-4 -7 0
-5 -6 0
-5 -7 0
-6 -7 0
-8 -9 0
-8 -10 0
-8 -11 0
-8 -12 0
-8 -13 0
-8 -14 0
-9 -10 0
-9 -11 0
-9 -12 0
-9 -13 0
-9 -14 0
-10 -11 0
-10 -12 0
-10 -13 0
-10 -14 0
-11 -12 0
-11 -13 0
-11 -14 0
-12 -13 0
-12 -14 0
-13 -14 0
-15 -16 0
-15 -17 0
-15 -18 0
-15 -19 0
-15 -20 0
-15 -21 0
-16 -17 0
-16 -18 0
-16 -19 0
-16 -20 0
-16 -21 0
-17 -18 0
-17 -19 0
-17 -20 0
-17 -21 0
-18 -19 0
-18 -20 0
-18 -21 0
-19 -20 0
-19 -21 0
-20 -21 0
-22 -23 0
-22 -24 0
-22 -25 0
-22 -26 0
-22 -27 0
-22 -28 0
-23 -24 0
-23 -25 0
-23 -26 0
-23 -27 0
-23 -28 0
-24 -25 0
-24 -26 0
-24 -27 0
-24 -28 0
-25 -26 0
-25 -27 0
-25 -28 0
-26 -27 0
-26 -28 0
-27 -28 0
-29 -30 0
-29 -31 0
-29 -32 0
-29 -33 0
-29 -34 0
-29 -35 0
-30 -31 0
-30 -32 0
-30 -33 0
-30 -34 0
-30 -35 0
-31 -32 0
-31 -33 0
-31 -34 0
-31 -35 0
-32 -33 0
-32 -34 0
-32 -35 0
-33 -34 0
-33 -35 0
-34 -35 0
-36 -37 0
-36 -38 0
-36 -39 0
-36 -40 0
-36 -41 0
-36 -42 0
-37 -38 0
-37 -39 0
-37 -40 0
-37 -41 0
-37 -42 0
-38 -39 0
-38 -40 0
-38 -41 0
-38 -42 0
-39 -40 0
-39 -41 0
-39 -42 0
-40 -41 0
-40 -42 0
-41 -42 0
-43 -44 0
-43 -45 0
-43 -46 0
-43 -47 0
-43 -48 0
-43 -49 0
-44 -45 0
-44 -46 0
-44 -47 0
-44 -48 0
-44 -49 0
-45 -46 0
-45 -47 0
-45 -48 0
-45 -49 0
-46 -47 0
-46 -48 0
-46 -49 0
-47 -48 0
-47 -49 0
-48 -49 0
-50 -51 0
-50 -52 0
-50 -53 0
-50 -54 0
-50 -55 0
-50 -56 0
-51 -52 0
-51 -53 0
-51 -54 0
-51 -55 0
-51 -56 0
-52 -53 0
-52 -54 0
-52 -55 0
-52 -56 0
-53 -54 0
-53 -55 0
-53 -56 0
-54 -55 0
-54 -56 0
-55 -56 0
-57 -58 0
-57 -59 0
-57 -60 0
-57 -61 0
-57 -62 0
-57 -63 0
-58 -59 0
-58 -60 0
-58 -61 0
-58 -62 0
-58 -63 0
-59 -60 0
-59 -61 0
-59 -62 0
-59 -63 0
-60 -61 0
-60 -62 0
-60 -63 0
-61 -62 0
-61 -63 0
-62 -63 0
-64 -65 0
-64 -66 0
-64 -67 0
-64 -68 0
-64 -69 0
-64 -70 0
-65 -66 0
-65 -67 0
-65 -68 0
-65 -69 0
-65 -70 0
-66 -67 0
-66 -68 0
-66 -69 0
-66 -70 0
-67 -68 0
-67 -69 0
-67 -70 0
-68 -69 0
-68 -70 0
-69 -70 0
-71 -72 0
-71 -73 0
-71 -74 0
-71 -75 0
-71 -76 0
-71 -77 0
-72 -73 0
-72 -74 0
-72 -75 0
-72 -76 0
-72 -77 0
-73 -74 0
-73 -75 0
-73 -76 0
-73 -77 0
-74 -75 0
-74 -76 0
-74 -77 0
-75 -76 0
-75 -77 0
-76 -77 0
-78 -79 0
-78 -80 0
-78 -81 0
-78 -82 0
-78 -83 0
-78 -84 0
-79 -80 0
-79 -81 0
-79 -82 0
-79 -83 0
-79 -84 0
-80 -81 0
-80 -82 0
-80 -83 0
-80 -84 0
-81 -82 0
-81 -83 0
-81 -84 0
-82 -83 0
-82 -84 0
-83 -84 0
-85 -86 0
-85 -87 0
-85 -88 0
-85 -89 0
-85 -90 0
-85 -91 0
-86 -87 0
-86 -88 0
-86 -89 0
-86 -90 0
-86 -91 0
-87 -88 0
-87 -89 0
-87 -90 0
-87 -91 0
-88 -89 0
-88 -90 0
-88 -91 0
-89 -90 0
-89 -91 0
-90 -91 0
-92 -93 0
-92 -94 0
-92 -95 0
-92 -96 0
-92 -97 0
-92 -98 0
-93 -94 0
-93 -95 0
-93 -96 0
-93 -97 0
-93 -98 0
-94 -95 0
-94 -96 0
-94 -97 0
-94 -98 0
-95 -96 0
-95 -97 0
-95 -98 0
-96 -97 0
-96 -98 0
-97 -98 0
-99 -100 0
-99 -101 0
-99 -102 0
-99 -103 0
-99 -104 0
-99 -105 0
-100 -101 0
-100 -102 0
-100 -103 0
-100 -104 0
-100 -105 0
-101 -102 0
-101 -103 0
-101 -104 0
-101 -105 0
-102 -103 0
-102 -104 0
-102 -105 0
-103 -104 0
-103 -105 0
-104 -105 0
-106 -107 0
-106 -108 0
-106 -109 0
-106 -110 0
-106 -111 0
-106 -112 0
-107 -108 0
-107 -109 0
-107 -110 0
-107 -111 0
-107 -112 0
-108 -109 0
-108 -110 0
-108 -111 0
-108 -112 0
-109 -110 0
-109 -111 0
-109 -112 0
-110 -111 0
-110 -112 0
-111 -112 0
-113 -114 0
-113 -115 0
-113 -116 0
-113 -117 0
-113 -118 0
-113 -119 0
-114 -115 0
-114 -116 0
-114 -117 0
-114 -118 0
-114 -119 0
-115 -116 0
-115 -117 0
-115 -118 0
-115 -119 0
-116 -117 0
-116 -118 0
-116 -119 0
-117 -118 0
-117 -119 0
-118 -119 0
-120 -121 0
-120 -122 0
-120 -123 0
-120 -124 0
-120 -125 0
-120 -126 0
-121 -122 0
-121 -123 0
-121 -124 0
-121 -125 0
-121 -126 0
-122 -123 0
-122 -124 0
-122 -125 0
-122 -126 0
-123 -124 0
-123 -125 0
-123 -126 0
-124 -125 0
-124 -126 0
-125 -126 0
-127 -128 0
-127 -129 0
-127 -130 0
-127 -131 0
-127 -132 0
-127 -133 0
-128 -129 0
-128 -130 0
-128 -131 0
-128 -132 0
-128 -133 0
-129 -130 0
-129 -131 0
-129 -132 0
-129 -133 0
-130 -131 0
-130 -132 0
-130 -133 0
-131 -132 0
-131 -133 0
-132 -133 0
-134 -135 0
-134 -136 0
-134 -137 0
-134 -138 0
-134 -139 0
-134 -140 0
-135 -136 0
-135 -137 0
-135 -138 0
-135 -139 0
-135 -140 0
-136 -137 0
-136 -138 0
-136 -139 0
-136 -140 0
-137 -138 0
-137 -139 0
-137 -140 0
-138 -139 0
-138 -140 0
-139 -140 0
-141 -142 0
-141 -143 0
-141 -144 0
-141 -145 0
-141 -146 0
-141 -147 0
-142 -143 0
-142 -144 0
-142 -145 0
-142 -146 0
-142 -147 0
-143 -144 0
-143 -145 0
-143 -146 0
-143 -147 0
-144 -145 0
-144 -146 0
-144 -147 0
-145 -146 0
-145 -147 0
-146 -147 0
-148 -149 0
-148 -150 0
-148 -151 0
-148 -152 0
-148 -153 0
-148 -154 0
-149 -150 0
-149 -151 0
-149 -152 0
-149 -153 0
-149 -154 0
-150 -151 0
-150 -152 0
-150 -153 0
-150 -154 0
-151 -152 0
-151 -153 0
-151 -154 0
-152 -153 0
-152 -154 0
-153 -154 0
-155 -156 0
-155 -157 0
-155 -158 0
-155 -159 0
-155 -160 0
-155 -161 0
-156 -157 0
-156 -158 0
-156 -159 0
-156 -160 0
-156 -161 0
-157 -158 0
-157 -159 0
-157 -160 0
-157 -161 0
-158 -159 0
-158 -160 0
-158 -161 0
-159 -160 0
-159 -161 0
-160 -161 0
-162 -163 0
-162 -164 0
-162 -165 0
-162 -166 0
-162 -167 0
-162 -168 0
-163 -164 0
-163 -165 0
-163 -166 0
-163 -167 0
-163 -168 0
-164 -165 0
-164 -166 0
-164 -167 0
-164 -168 0
-165 -166 0
-165 -167 0
-165 -168 0
-166 -167 0
-166 -168 0
-167 -168 0
-169 -170 0
-169 -171 0
-169 -172 0
-169 -173 0
-169 -174 0
-169 -175 0
-170 -171 0
-170 -172 0
-170 -173 0
-170 -174 0
-170 -175 0
-171 -172 0
-171 -173 0
-171 -174 0
-171 -175 0
-172 -173 0
-172 -174 0
-172 -175 0
-173 -174 0
-173 -175 0
-174 -175 0
-176 -177 0
-176 -178 0
-176 -179 0
-176 -180 0
-176 -181 0
-176 -182 0
-177 -178 0
-177 -179 0
-177 -180 0
-177 -181 0
-177 -182 0
-178 -179 0
-178 -180 0
-178 -181 0
-178 -182 0
-179 -180 0
-179 -181 0
-179 -182 0
-180 -181 0
-180 -182 0
-181 -182 0
-183 -184 0
-183 -185 0
-183 -186 0
-183 -187 0
-183 -188 0
-183 -189 0
-184 -185 0
-184 -186 0
-184 -187 0
-184 -188 0
-184 -189 0
-185 -186 0
-185 -187 0
-185 -188 0
-185 -189 0
-186 -187 0
-186 -188 0
-186 -189 0
-187 -188 0
-187 -189 0
-188 -189 0
-190 -191 0
-190 -192 0
-190 -193 0
-190 -194 0
-190 -195 0
-190 -196 0
-191 -192 0
-191 -193 0
-191 -194 0
-191 -195 0
-191 -196 0
-192 -193 0
-192 -194 0
-192 -195 0
-192 -196 0
-193 -194 0
-193 -195 0
-193 -196 0
-194 -195 0
-194 -196 0
-195 -196 0
-197 -198 0
-197 -199 0
-197 -200 0
-197 -201 0
-197 -202 0
-197 -203 0
-198 -199 0
-198 -200 0
-198 -201 0
-198 -202 0
-198 -203 0
-199 -200 0
-199 -201 0
-199 -202 0
-199 -203 0
-200 -201 0
-200 -202 0
-200 -203 0
-201 -202 0
-201 -203 0
-202 -203 0
-204 -205 0
-204 -206 0
-204 -207 0
-204 -208 0
-204 -209 0
-204 -210 0
-205 -206 0
-205 -207 0
-205 -208 0
-205 -209 0
-205 -210 0
-206 -207 0
-206 -208 0
-206 -209 0
-206 -210 0
-207 -208 0
-207 -209 0
-207 -210 0
-208 -209 0
-208 -210 0
-209 -210 0
-211 -212 0
-211 -213 0
-211 -214 0
-211 -215 0
-211 -216 0
-211 -217 0
-212 -213 0
-212 -214 0
-212 -215 0
-212 -216 0
-212 -217 0
-213 -214 0
-213 -215 0
-213 -216 0
-213 -217 0
-214 -215 0
-214 -216 0
-214 -217 0
-215 -216 0
-215 -217 0
-216 -217 0
-218 -219 0
-218 -220 0
-218 -221 0
-218 -222 0
-218 -223 0
-218 -224 0
-219 -220 0
-219 -221 0
-219 -222 0
-219 -223 0
-219 -224 0
-220 -221 0
-220 -222 0
-220 -223 0
-220 -224 0
-221 -222 0
-221 -223 0
-221 -224 0
-222 -223 0
-222 -224 0
-223 -224 0
-225 -226 0
-225 -227 0
-225 -228 0
-225 -229 0
-225 -230 0
-225 -231 0
-226 -227 0
-226 -228 0
-226 -229 0
-226 -230 0
-226 -231 0
-227 -228 0
-227 -229 0
-227 -230 0
-227 -231 0
-228 -229 0
-228 -230 0
-228 -231 0
-229 -230 0
-229 -231 0
-230 -231 0
-232 -233 0
-232 -234 0
-232 -235 0
-232 -236 0
-232 -237 0
-232 -238 0
-233 -234 0
-233 -235 0
-233 -236 0
-233 -237 0
-233 -238 0
-234 -235 0
-234 -236 0
-234 -237 0
-234 -238 0
-235 -236 0
-235 -237 0
-235 -238 0
-236 -237 0
-236 -238 0
-237 -238 0
-239 -240 0
-239 -241 0
-239 -242 0
-239 -243 0
-239 -244 0
-239 -245 0
-240 -241 0
-240 -242 0
-240 -243 0
-240 -244 0
-240 -245 0
-241 -242 0
-241 -243 0
-241 -244 0
-241 -245 0
-242 -243 0
-242 -244 0
-242 -245 0
-243 -244 0
-243 -245 0
-244 -245 0
-246 -247 0
-246 -248 0
-246 -249 0
-246 -250 0
-246 -251 0
-246 -252 0
-247 -248 0
-247 -249 0
-247 -250 0
-247 -251 0
-247 -252 0
-248 -249 0
-248 -250 0
-248 -251 0
-248 -252 0
-249 -250 0
-249 -251 0
-249 -252 0
-250 -251 0
-250 -252 0
-251 -252 0
-253 -254 0
-253 -255 0
-253 -256 0
-253 -257 0
-253 -258 0
-253 -259 0
-254 -255 0
-254 -256 0
-254 -257 0
-254 -258 0
-254 -259 0
-255 -256 0
-255 -257 0
-255 -258 0
-255 -259 0
-256 -257 0
-256 -258 0
-256 -259 0
-257 -258 0
-257 -259 0
-258 -259 0
-260 -261 0
-260 -262 0
-260 -263 0
-260 -264 0
-260 -265 0
-260 -266 0
-261 -262 0
-261 -263 0
-261 -264 0
-261 -265 0
-261 -266 0
-262 -263 0
-262 -264 0
-262 -265 0
-262 -266 0
-263 -264 0
-263 -265 0
-263 -266 0
-264 -265 0
-264 -266 0
-265 -266 0
-267 -268 0
-267 -269 0
-267 -270 0
-267 -271 0
-267 -272 0
-267 -273 0
-268 -269 0
-268 -270 0
-268 -271 0
-268 -272 0
-268 -273 0
-269 -270 0
-269 -271 0
-269 -272 0
-269 -273 0
-270 -271 0
-270 -272 0
-270 -273 0
-271 -272 0
-271 -273 0
-272 -273 0
-274 -275 0
-274 -276 0
-274 -277 0
-274 -278 0
-274 -279 0
-274 -280 0
-275 -276 0
-275 -277 0
-275 -278 0
-275 -279 0
-275 -280 0
-276 -277 0
-276 -278 0
-276 -279 0
-276 -280 0
-277 -278 0
-277 -279 0
-277 -280 0
-278 -279 0
-278 -280 0
-279 -280 0
-3 -12 0
-7 -13 0
-4 -12 0
-5 -12 0
-3 -24 0
-4 -27 0
-5 -22 0
-4 -25 0
-2 -48 0
-7 -45 0
-4 -46 0
-6 -44 0
-7 -54 0
-5 -50 0
-6 -51 0
-1 -54 0
-4 -138 0
-1 -137 0
-4 -134 0
-1 -134 0
-1 -153 0
-3 -150 0
-7 -149 0
-6 -152 0
-1 -160 0
-4 -160 0
-2 -157 0
-4 -158 0
-7 -168 0
-7 -163 0
-3 -166 0
-1 -165 0
-5 -194 0
-6 -193 0
-3 -192 0
-1 -194 0
-6 -217 0
-4 -212 0
-2 -213 0
-3 -211 0
-1 -218 0
-7 -224 0
-1 -219 0
-7 -221 0
-6 -232 0
-7 -234 0
-5 -235 0
-7 -237 0
-5 -241 0
-1 -240 0
-5 -245 0
-1 -239 0
-7 -246 0
-3 -248 0
-4 -250 0
-4 -247 0
-4 -254 0
-6 -256 0
-3 -257 0
-2 -259 0
-12 -24 0
-13 -22 0
-14 -25 0
-11 -25 0
-11 -38 0
-11 -37 0
-8 -41 0
-12 -40 0
-11 -79 0
-11 -84 0
-14 -78 0
-9 -78 0
-14 -101 0
-8 -102 0
-9 -102 0
-10 -105 0
-14 -110 0
-10 -111 0
-10 -107 0
-11 -110 0
-13 -130 0
-8 -131 0
-10 -131 0
-11 -129 0
-10 -155 0
-13 -157 0
-14 -161 0
-14 -160 0
-10 -162 0
-8 -163 0
-11 -167 0
-9 -162 0
-13 -199 0
-8 -200 0
-8 -202 0
-10 -200 0
-14 -241 0
-8 -243 0
-9 -241 0
-13 -241 0
-13 -265 0
-11 -263 0
-10 -264 0
-12 -261 0
-8 -277 0
-13 -275 0
-12 -276 0
-9 -276 0
-21 -28 0
-20 -22 0
-16 -27 0
-15 -23 0
-21 -34 0
-17 -31 0
-15 -32 0
-19 -33 0
-16 -65 0
-19 -68 0
-17 -69 0
-16 -66 0
-15 -126 0
-18 -126 0
-21 -121 0
-19 -124 0
-18 -145 0
-15 -146 0
-20 -141 0
-17 -147 0
-19 -177 0
-18 -180 0
-15 -178 0
-18 -177 0
-20 -188 0
-19 -183 0
-21 -187 0
-17 -184 0
-19 -200 0
-16 -201 0
-20 -198 0
-15 -197 0
-16 -208 0
-15 -209 0
-19 -210 0
-18 -204 0
-15 -217 0
-18 -216 0
-19 -212 0
-18 -214 0
-16 -243 0
-17 -240 0
-21 -245 0
-20 -245 0
-15 -246 0
-16 -248 0
-21 -250 0
-16 -250 0
-16 -259 0
-17 -255 0
-20 -258 0
-17 -259 0
-16 -262 0
-19 -262 0
-16 -266 0
-19 -260 0
-26 -41 0
-27 -40 0
-22 -39 0
-23 -39 0
-24 -48 0
-22 -44 0
-24 -47 0
-22 -45 0
-23 -136 0
-24 -134 0
-26 -137 0
-27 -140 0
-24 -152 0
-25 -153 0
-27 -151 0
-28 -153 0
-28 -221 0
-22 -223 0
-26 -218 0
-27 -221 0
-25 -225 0
-26 -229 0
-28 -225 0
-27 -228 0
-22 -236 0
-24 -232 0
-24 -233 0
-23 -233 0
-28 -240 0
-24 -245 0
-27 -243 0
-28 -245 0
-22 -246 0
-23 -248 0
-28 -250 0
-28 -251 0
-28 -274 0
-23 -280 0
-25 -277 0
-23 -279 0
-35 -37 0
-31 -38 0
-29 -36 0
-30 -42 0
-35 -43 0
-30 -48 0
-29 -43 0
-32 -47 0
-33 -70 0
-29 -69 0
-33 -68 0
-35 -67 0
-29 -79 0
-30 -79 0
-32 -81 0
-31 -83 0
-30 -115 0
-29 -115 0
-34 -116 0
-30 -118 0
-32 -180 0
-29 -177 0
-34 -178 0
-32 -178 0
-30 -208 0
-29 -206 0
-31 -208 0
-32 -204 0
-35 -227 0
-33 -225 0
-33 -230 0
-31 -225 0
-30 -253 0
-33 -259 0
-34 -255 0
-31 -259 0
-31 -266 0
-31 -260 0
-35 -266 0
-29 -263 0
-30 -280 0
-33 -277 0
-29 -278 0
-29 -275 0
-36 -64 0
-37 -68 0
-37 -66 0
-42 -69 0
-36 -74 0
-37 -76 0
-42 -75 0
-36 -72 0
-36 -81 0
-38 -78 0
-41 -84 0
-42 -78 0
-39 -101 0
-38 -103 0
-36 -101 0
-42 -102 0
-41 -111 0
-39 -106 0
-41 -106 0
-42 -111 0
-36 -125 0
-39 -122 0
-41 -124 0
-40 -124 0
-36 -147 0
-38 -141 0
-37 -144 0
-36 -144 0
-37 -149 0
-39 -151 0
-41 -154 0
-37 -150 0
-39 -157 0
-40 -158 0
-42 -156 0
-40 -159 0
-40 -236 0
-37 -234 0
-41 -233 0
-41 -232 0
-36 -260 0
-40 -264 0
-42 -262 0
-40 -261 0
-45 -77 0
-43 -74 0
-47 -76 0
-48 -74 0
-44 -82 0
-48 -84 0
-46 -80 0
-47 -78 0
-49 -90 0
-46 -87 0
-43 -88 0
-45 -88 0
-48 -151 0
-43 -154 0
-47 -149 0
-47 -153 0
-45 -172 0
-44 -172 0
-48 -170 0
-49 -175 0
-46 -189 0
-46 -187 0
-45 -187 0
-45 -185 0
-46 -203 0
-45 -200 0
-44 -199 0
-48 -202 0
-43 -219 0
-44 -219 0
-48 -224 0
-48 -219 0
-43 -226 0
-46 -225 0
-48 -226 0
-49 -231 0
-44 -253 0
-49 -257 0
-44 -258 0
-43 -258 0
-47 -276 0
-48 -279 0
-48 -276 0
-45 -278 0
-50 -69 0
-53 -66 0
-51 -69 0
-56 -68 0
-53 -79 0
-56 -78 0
-55 -81 0
-55 -78 0
-50 -95 0
-53 -94 0
-50 -97 0
-56 -96 0
-50 -100 0
-53 -105 0
-52 -101 0
-53 -103 0
-56 -135 0
-54 -138 0
-56 -139 0
-52 -135 0
-56 -171 0
-54 -175 0
-50 -169 0
-51 -175 0
-54 -222 0
-52 -224 0
-54 -220 0
-53 -219 0
-55 -230 0
-53 -228 0
-53 -226 0
-54 -228 0
-55 -249 0
-54 -246 0
-54 -251 0
-54 -252 0
-54 -256 0
-52 -257 0
-50 -253 0
-56 -257 0
-60 -83 0
-62 -79 0
-61 -79 0
-62 -78 0
-57 -109 0
-59 -109 0
-59 -110 0
-57 -110 0
-57 -133 0
-61 -128 0
-58 -130 0
-61 -127 0
-61 -137 0
-59 -138 0
-58 -136 0
-58 -139 0
-59 -142 0
-63 -145 0
-57 -145 0
-60 -147 0
-58 -172 0
-61 -175 0
-62 -175 0
-63 -171 0
-60 -181 0
-62 -181 0
-61 -177 0
-57 -177 0
-59 -187 0
-61 -185 0
-60 -183 0
-57 -185 0
-57 -201 0
-58 -200 0
-62 -199 0
-60 -197 0
-60 -239 0
-59 -245 0
-60 -240 0
-59 -239 0
-68 -77 0
-64 -75 0
-66 -71 0
-69 -74 0
-67 -83 0
-70 -80 0
-67 -84 0
-67 -82 0
-65 -111 0
-70 -112 0
-67 -106 0
-68 -108 0
-68 -122 0
-64 -121 0
-66 -120 0
-66 -125 0
-65 -145 0
-69 -147 0
-70 -143 0
-66 -145 0
-68 -178 0
-66 -181 0
-69 -181 0
-66 -178 0
-66 -202 0
-69 -200 0
-70 -198 0
-67 -198 0
-70 -207 0
-64 -210 0
-66 -208 0
-64 -208 0
-66 -211 0
-64 -215 0
-64 -213 0
-68 -215 0
-64 -218 0
-66 -223 0
-70 -221 0
-68 -223 0
-64 -243 0
-68 -240 0
-66 -244 0
-67 -244 0
-66 -254 0
-67 -255 0
-69 -254 0
-69 -256 0
-73 -80 0
-75 -79 0
-71 -82 0
-71 -83 0
-75 -102 0
-74 -104 0
-77 -103 0
-73 -105 0
-71 -124 0
-74 -121 0
-73 -122 0
-77 -121 0
-73 -130 0
-74 -132 0
-74 -130 0
-75 -132 0
-72 -150 0
-74 -154 0
-77 -153 0
-73 -148 0
-72 -155 0
-73 -155 0
-72 -156 0
-74 -155 0
-71 -202 0
-77 -202 0
-75 -197 0
-74 -200 0
-74 -210 0
-73 -208 0
-77 -205 0
-73 -209 0
-77 -218 0
-72 -220 0
-77 -224 0
-77 -222 0
-74 -232 0
-77 -238 0
-74 -234 0
-76 -238 0
-78 -90 0
-84 -86 0
-79 -86 0
-83 -85 0
-79 -137 0
-81 -135 0
-78 -137 0
-80 -134 0
-79 -162 0
-78 -164 0
-79 -168 0
-83 -164 0
-81 -174 0
-81 -175 0
-84 -173 0
-78 -172 0
-81 -230 0
-78 -231 0
-81 -225 0
-84 -231 0
-78 -238 0
-79 -232 0
-79 -238 0
-82 -237 0
-80 -244 0
-81 -240 0
-79 -244 0
-78 -245 0
-84 -267 0
-81 -270 0
-79 -268 0
-81 -272 0
-85 -162 0
-91 -163 0
-89 -163 0
-89 -164 0
-85 -188 0
-89 -186 0
-88 -189 0
-87 -186 0
-91 -204 0
-85 -207 0
-91 -210 0
-89 -210 0
-87 -225 0
-87 -229 0
-89 -230 0
-85 -229 0
-90 -252 0
-88 -249 0
-91 -252 0
-85 -249 0
-91 -255 0
-90 -257 0
-87 -259 0
-86 -254 0
-98 -106 0
-95 -111 0
-96 -109 0
-94 -109 0
-93 -164 0
-97 -162 0
-92 -168 0
-98 -166 0
-93 -203 0
-96 -197 0
-92 -199 0
-95 -202 0
-93 -206 0
-94 -209 0
-92 -210 0
-94 -205 0
-97 -216 0
-94 -213 0
-95 -214 0
-95 -213 0
-92 -220 0
-97 -221 0
-95 -224 0
-93 -223 0
-94 -250 0
-96 -249 0
-97 -248 0
-95 -251 0
-103 -106 0
-102 -111 0
-103 -112 0
-105 -107 0
-99 -140 0
-105 -139 0
-105 -140 0
-104 -135 0
-103 -163 0
-99 -166 0
-102 -164 0
-100 -168 0
-103 -172 0
-101 -175 0
-105 -172 0
-100 -171 0
-105 -187 0
-105 -185 0
-101 -186 0
-102 -187 0
-105 -270 0
-99 -268 0
-105 -267 0
-103 -272 0
-110 -135 0
-110 -137 0
-110 -138 0
-109 -140 0
-106 -143 0
-107 -144 0
-108 -143 0
-109 -147 0
-110 -148 0
-107 -153 0
-111 -153 0
-110 -150 0
-107 -197 0
-106 -200 0
-110 -201 0
-111 -202 0
-111 -246 0
-109 -252 0
-112 -246 0
-110 -247 0
-113 -131 0
-117 -129 0
-113 -128 0
-115 -127 0
-119 -153 0
-118 -153 0
-113 -153 0
-115 -154 0
-115 -162 0
-115 -165 0
-116 -167 0
-116 -165 0
-116 -177 0
-118 -180 0
-117 -180 0
-116 -178 0
-114 -190 0
-113 -196 0
-115 -195 0
-118 -190 0
-118 -201 0
-117 -201 0
-114 -197 0
-115 -202 0
-116 -225 0
-119 -230 0
-118 -229 0
-117 -231 0
-115 -242 0
-117 -242 0
-119 -242 0
-118 -241 0
-123 -132 0
-126 -131 0
-123 -127 0
-122 -133 0
-123 -151 0
-125 -153 0
-122 -154 0
-125 -149 0
-122 -173 0
-124 -172 0
-124 -170 0
-121 -172 0
-126 -183 0
-121 -183 0
-122 -185 0
-120 -183 0
-123 -218 0
-120 -221 0
-126 -222 0
-120 -224 0
-121 -238 0
-125 -235 0
-122 -235 0
-122 -237 0
-123 -258 0
-121 -256 0
-120 -255 0
-120 -259 0
-132 -154 0
-128 -154 0
-127 -154 0
-128 -150 0
-133 -271 0
-132 -270 0
-133 -273 0
-129 -269 0
-129 -278 0
-133 -278 0
-133 -274 0
-130 -277 0
-135 -144 0
-137 -147 0
-137 -142 0
-136 -146 0
-135 -150 0
-136 -148 0
-138 -151 0
-139 -150 0
-135 -184 0
-136 -188 0
-139 -188 0
-134 -183 0
-136 -201 0
-137 -200 0
-138 -203 0
-136 -203 0
-136 -207 0
-138 -208 0
-136 -205 0
-139 -205 0
-142 -190 0
-145 -190 0
-143 -191 0
-143 -193 0
-144 -203 0
-145 -201 0
-147 -203 0
-144 -199 0
-145 -232 0
-145 -237 0
-142 -238 0
-142 -233 0
-147 -257 0
-142 -258 0
-143 -254 0
-143 -259 0
-151 -172 0
-152 -175 0
-150 -171 0
-148 -175 0
-151 -266 0
-152 -264 0
-150 -260 0
-150 -261 0
-150 -270 0
-148 -267 0
-153 -270 0
-149 -269 0
-153 -277 0
-154 -278 0
-151 -278 0
-149 -276 0
-158 -181 0
-161 -182 0
-156 -179 0
-157 -176 0
-156 -280 0
-157 -277 0
-161 -274 0
-156 -275 0
-168 -171 0
-166 -171 0
-165 -172 0
-164 -171 0
-167 -207 0
-167 -210 0
-165 -206 0
-166 -207 0
-163 -215 0
-164 -211 0
-164 -212 0
-162 -211 0
-165 -221 0
-168 -223 0
-162 -219 0
-165 -218 0
-163 -255 0
-168 -257 0
-168 -256 0
-165 -253 0
-167 -272 0
-162 -267 0
-163 -272 0
-164 -271 0
-171 -227 0
-170 -229 0
-171 -226 0
-172 -231 0
-173 -239 0
-171 -242 0
-172 -244 0
-171 -244 0
-171 -258 0
-169 -253 0
-173 -256 0
-170 -257 0
-176 -220 0
-182 -221 0
-179 -219 0
-180 -222 0
-176 -237 0
-179 -237 0
-178 -234 0
-177 -236 0
-177 -267 0
-180 -271 0
-178 -273 0
-182 -269 0
-189 -196 0
-187 -191 0
-184 -191 0
-188 -195 0
-183 -217 0
-187 -211 0
-189 -212 0
-186 -215 0
-187 -230 0
-189 -229 0
-184 -229 0
-188 -229 0
-189 -240 0
-189 -243 0
-188 -240 0
-185 -240 0
-184 -252 0
-187 -252 0
-183 -252 0
-188 -252 0
-195 -233 0
-190 -235 0
-190 -237 0
-190 -232 0
-191 -248 0
-196 -247 0
-195 -248 0
-190 -249 0
-194 -262 0
-195 -261 0
-194 -260 0
-192 -266 0
-191 -268 0
-190 -271 0
-192 -271 0
-195 -271 0
-192 -278 0
-193 -274 0
-194 -276 0
-195 -277 0
-200 -255 0
-203 -258 0
-202 -257 0
-200 -253 0
-210 -216 0
-204 -211 0
-205 -214 0
-207 -216 0
-207 -221 0
-209 -219 0
-210 -218 0
-209 -223 0
-208 -241 0
-207 -239 0
-205 -243 0
-208 -245 0
-204 -257 0
-205 -255 0
-209 -259 0
-210 -253 0
-208 -265 0
-206 -262 0
-209 -263 0
-207 -262 0
-205 -273 0
-205 -268 0
-208 -269 0
-207 -268 0
-215 -228 0
-216 -228 0
-213 -226 0
-214 -231 0
-213 -235 0
-217 -233 0
-215 -235 0
-211 -235 0
-213 -278 0
-211 -276 0
-217 -277 0
-216 -279 0
-222 -239 0
-222 -243 0
-218 -239 0
-224 -239 0
-230 -254 0
-225 -259 0
-231 -259 0
-227 -254 0
-234 -245 0
-236 -243 0
-232 -240 0
-237 -242 0
-235 -258 0
-235 -254 0
-232 -253 0
-235 -257 0
-237 -264 0
-234 -266 0
-235 -262 0
-236 -262 0
-245 -251 0
-244 -250 0
-241 -246 0
-243 -250 0
-241 -278 0
-241 -275 0
-240 -274 0
-242 -275 0
-251 -259 0
-251 -254 0
-247 -259 0
-252 -255 0
-252 -272 0
-250 -270 0
-248 -270 0
-252 -271 0
-259 -267 0
-255 -268 0
-254 -271 0
-257 -271 0
-261 -276 0
-260 -278 0
-260 -277 0
-262 -277 0
